; benchmark generated from python API
(set-info :status unknown)
(declare-fun ari_arg5 () Int)
(declare-fun ari_arg () Int)
(declare-fun ari_sum (Int) Int)
(assert
 (let ((?x166 (+ ari_arg ari_arg5)))
(let ((?x282 (ite (or (= 0 ari_arg) (not (>= ari_arg 0))) 0 ari_arg)))
(let (($x7 (= 0 ari_arg)))
(let (($x267 (>= ari_arg 0)))
(let (($x192 (and $x267 (or $x7 (not (or (<= ari_arg ?x282) (not (>= 0 ari_arg))))))))
(let ((?x322 (ite (or (and (not $x267) (>= 0 ari_arg)) $x192) ari_arg5 ?x166)))
(let ((?x167 (ari_sum ari_arg)))
(= ?x167 ?x322)))))))))
(check-sat)
